10
2 1 344
3 1 932
3 2 156
4 1 334
4 2 721
4 3 991
5 1 38
5 2 143
5 3 379
5 4 972
6 1 507
6 2 748
6 3 182
6 4 623
6 5 646
7 1 672
7 2 88
7 3 238
7 4 995
7 5 194
7 6 671
8 1 213
8 2 135
8 3 772
8 4 81
8 5 157
8 6 583
8 7 425
9 1 724
9 2 909
9 3 420
9 4 554
9 5 264
9 6 114
9 7 356
9 8 981
